3 24 1 10
9 20 3 2 3 15 1 13 5 9 5 4 11 8 12 6 17 13 10 20 18 18 8 13 
5.96 5.36 4.42 7.18 4.99 5.45 2.16 3.93 7.5 6 6.16 1.92 1.16 0.08 4.3 0.66 7.97 4.04 0.39 3.94 2.42 5.11 5.93 4.6 
4 4 4 4 4 4 4 4 4 4 4 4 4 4 4 4 4 4 4 4 4 4 4 4 
0.31 0.6 5.97 3.17 4.59 3.09 5.85 2.71 4.41 4.22 7.52 4.26 2.77 4.31 4.6 5.74 0.41 3.28 4.43 4.81 3.36 0.29 7.87 3.31 
1 1 1 1 1 1 1 1 1 1 1 1 1 1 1 1 1 1 1 1 1 1 1 1 
1 1 1 1 1 1 1 1 1 1 1 1 1 1 1 1 1 1 1 1 1 1 1 1 
1 1 1 1 1 1 1 1 1 1 1 1 1 1 1 1 1 1 1 1 1 1 1 1 
0.01 0.01 0.01 0.01 0.01 0.01 0.01 0.01 0.01 0.01 0.01 0.01 0.01 0.01 0.01 0.01 0.01 0.01 0.01 0.01 0.01 0.01 0.01 0.01 
0.02 0.02 0.02 0.02 0.02 0.02 0.02 0.02 0.02 0.02 0.02 0.02 0.02 0.02 0.02 0.02 0.02 0.02 0.02 0.02 0.02 0.02 0.02 0.02 
1 1 1 1 1 1 1 1 1 1 1 1 1 1 1 1 1 1 1 1 1 1 1 1 
